 Run started: Tue, 11 Jul 2023 04:08:33 -0700
 Warning - deprecated keyword PHONON_SUM_RULE found in input file
         - preferred usage is PHONON_SUM_RULE_METHOD
 |  D D D D    F F F F F  P P P P     T T T T T    |
 |  D       D  F          P       P       T        |
 |  D       D  F F F F    P P P P         T        |
 |  D       D  F          P               T        |
 |  D D D D    F          P               T        |
 | Welcome to Castep Linear Response (DFPT)        |
 | Copyright (c) 2006 - 2020                       |
 | Please cite the following publications in all   |
 | work arising from your use of CASTEP LR.        |
 | K. Refson, S. J. Clark and P. R. Tulip          |
 | Variational density functional perturbation     |
 | theory for dielectrics and lattice dynamics     |
 | Phys. Rev. B 73(15), 155114 (2006)              |

 Atomic calculation performed for H: 1s1

 Converged in 41 iterations to an ae energy of -12.488 eV

   | Pseudopotential Report - Date of generation 11-07-2023   |
   | Element: H Ionic charge:  1.00 Level of theory: PBE      |
   | Atomic Solver: Koelling-Harmon                           |
   |               Reference Electronic Structure             |
   |         Orbital         Occupation         Energy        |
   |            1s              1.000           -0.239        |
   |                 Pseudopotential Definition               |
   |        Beta     l      e      Rc     scheme   norm       |
   |          1      0   -0.239   0.803     qc      1         |
   |         loc     1    0.000   0.803     pn      0         |
   | No charge augmentation                                   |
   | No partial core correction                               |
   | "1|0.8|14|16|19|10N(qc=8)"                               |
   |      Author: Chris J. Pickard, Cambridge University      |

 Atomic calculation performed for C: 1s2 2s2 2p2

[...]

   | Pseudopotential Report - Date of generation 11-07-2023   |
   | Element: C Ionic charge:  4.00 Level of theory: PBE      |
   | Atomic Solver: Koelling-Harmon                           |
   |               Reference Electronic Structure             |
   |         Orbital         Occupation         Energy        |
   |            2s              2.000           -0.505        |
   |            2p              2.000           -0.194        |
   |                 Pseudopotential Definition               |
   |        Beta     l      e      Rc     scheme   norm       |
   |          1      0   -0.505   1.201     qc      1         |
   |         loc     1   -0.194   1.201     qc      1         |
   | No charge augmentation                                   |
   | Partial core correction Rc = 0.839                       |
   | "1|1.2|17|20|23|20N:21L(qc=8)"                           |
   |      Author: Chris J. Pickard, Cambridge University      |

 Atomic calculation performed for O: 1s2 2s2 2p4

[...]

   | Pseudopotential Report - Date of generation 11-07-2023   |
   | Element: O Ionic charge:  6.00 Level of theory: PBE      |
   | Atomic Solver: Koelling-Harmon                           |
   |               Reference Electronic Structure             |
   |         Orbital         Occupation         Energy        |
   |            2s              2.000           -0.881        |
   |            2p              4.000           -0.332        |
   |                 Pseudopotential Definition               |
   |        Beta     l      e      Rc     scheme   norm       |
   |          1      0   -0.881   1.196     qc      1         |
   |          2      0    0.250   1.196     qc      1         |
   |          3      1   -0.332   1.196     qc      1         |
   |          4      1    0.250   1.196     qc      1         |
   |         loc     2    0.000   1.196     pn      0         |
   | No charge augmentation                                   |
   | Partial core correction Rc = 0.842                       |
   | "2|1.2|23|26|31|20NN:21NN(qc=9)"                         |
   |      Author: Chris J. Pickard, Cambridge University      |

 Atomic calculation performed for Na: 1s2 2s2 2p6 3s1

[...]

   | Pseudopotential Report - Date of generation 11-07-2023   |
   | Element: Na Ionic charge:  9.00 Level of theory: PBE     |
   | Atomic Solver: Koelling-Harmon                           |
   |               Reference Electronic Structure             |
   |         Orbital         Occupation         Energy        |
   |            2s              2.000           -2.086        |
   |            2p              6.000           -1.054        |
   |            3s              1.000           -0.101        |
   |                 Pseudopotential Definition               |
   |        Beta     l      e      Rc     scheme   norm       |
   |          1      0   -2.086   1.495     qc      1         |
   |          2      0   -0.101   1.495     qc      1         |
   |          3      1   -1.054   1.495     qc      1         |
   |         loc     2    0.000   1.495     pn      0         |
   | No charge augmentation                                   |
   | Partial core correction Rc = 1.053                       |
   | "2|1.5|20|23|26|20N:30N:21N(qc=8)"                       |
   |      Author: Chris J. Pickard, Cambridge University      |

 Atomic calculation performed for Ti: 1s2 2s2 2p6 3s2 3p6 3d2 4s2

 Converged in 79 iterations to an ae energy of -23226.658 eV

   | Pseudopotential Report - Date of generation 11-07-2023   |
   | Element: Ti Ionic charge: 12.00 Level of theory: PBE     |
   | Atomic Solver: Koelling-Harmon                           |
   |               Reference Electronic Structure             |
   |         Orbital         Occupation         Energy        |
   |            3s              2.000           -2.302        |
   |            3p              6.000           -1.428        |
   |            4s              2.000           -0.164        |
   |            3d              2.000           -0.157        |
   |                 Pseudopotential Definition               |
   |        Beta     l      e      Rc     scheme   norm       |
   |          1      0   -2.302   1.793     qc      1         |
   |          2      0   -0.164   1.793     qc      1         |
   |          3      1   -1.428   1.793     qc      1         |
   |          4      2   -0.157   1.793     qc      1         |
   |         loc     3    0.000   1.793     pn      0         |
   | No charge augmentation                                   |
   | Partial core correction Rc = 1.263                       |
   | "3|1.8|15|17|19|30N:40N:31N:32N(qc=7)"                   |
   |      Author: Chris J. Pickard, Cambridge University      |

 Pseudo atomic calculation performed for H 1s1

 Converged in 20 iterations to a total energy of -12.4801 eV

 Pseudo atomic calculation performed for C 2s2 2p2

[...]

 Pseudo atomic calculation performed for Na 2s2 2p6 3s1

[...]

 Converged in 45 iterations to a total energy of -1577.3344 eV
 Calculation parallelised over 40 processes.
 Data is distributed by G-vector(40-way)

 ************************************ Title ************************************
 phonon calc with some thermo stuff at 298 K

 ***************************** General Parameters ******************************

 output verbosity                               : normal  (1)
 write checkpoint data to                       : Na4TiO5CO3_w_water_thermo.check
 type of calculation                            : Thermodynamics calculation
 stress calculation                             : off
 density difference calculation                 : off
 electron localisation func (ELF) calculation   : off
 Hirshfeld analysis                             : off
 molecular orbital projected DOS                : off
 deltaSCF calculation                           : off
 unlimited duration calculation
 timing information                             : on
 write extra output files                       : on
 write final potential to formatted file        : off
 write final density to formatted file          : off
 write BibTeX reference list                    : on
 write OTFG pseudopotential files               : on
 write electrostatic potential file             : on
 write bands file                               : on
 checkpoint writing                             : both castep_bin and check files

 output         length unit                     : A
 output           mass unit                     : amu
 output           time unit                     : ps
 output         charge unit                     : e
 output           spin unit                     : hbar/2
 output         energy unit                     : eV
 output          force unit                     : eV/A
 output       velocity unit                     : A/ps
 output       pressure unit                     : GPa
 output     inv_length unit                     : 1/A
 output      frequency unit                     : cm-1
 output force constant unit                     : eV/A**2
 output         volume unit                     : A**3
 output   IR intensity unit                     : (D/A)**2/amu
 output         dipole unit                     : D
 output         efield unit                     : eV/A/e
 output        entropy unit                     : J/mol/K
 output    efield chi2 unit                     : pm/V

 wavefunctions paging                           : none
 random number generator seed                   : randomised (40833381)
 data distribution                              : optimal for this architecture
 optimization strategy                          : maximize speed(+++)

 *********************** Exchange-Correlation Parameters ***********************

 using functional                               : Perdew Burke Ernzerhof
 relativistic treatment                         : Koelling-Harmon
 DFT+D: Semi-empirical dispersion correction    : off

 ************************* Pseudopotential Parameters **************************

 pseudopotential representation                 : reciprocal space
 <beta|phi> representation                      : reciprocal space
 spin-orbit coupling                            : off

 **************************** Basis Set Parameters *****************************

 plane wave basis set cut-off                   :   850.0000   eV
 size of standard grid                          :     1.7500
 size of   fine   gmax                          :    26.1388   1/A
 finite basis set correction                    : none

 **************************** Electronic Parameters ****************************

 number of  electrons                           :  496.0
 net charge of system                           :  0.000
 treating system as non-spin-polarized
 number of bands                                :        248
 electron temperature                           :     0.0000   K

 ********************* Electronic Minimization Parameters **********************

 Method: Treating system as non-metallic,
         and number of  SD  steps               :          1
         and number of  CG  steps               :          4

[...]
 * Ti              2      0.00167     -0.00106      0.00003 *
 * Ti              3     -0.00076      0.00019     -0.00004 *
 * Ti              4     -0.00045      0.00034     -0.00077 *

 Pseudo atomic calculation performed for H 1s1

[...]

 Pseudo atomic calculation performed for O 2s2 2p4

[...]

 Converged in 24 iterations to a total energy of -1230.2427 eV

 Pseudo atomic calculation performed for Ti 3s2 3p6 3d2 4s2

 Converged in 45 iterations to a total energy of -1577.3344 eV
Charge spilling parameter for spin component 1 = 0.36%

            Orbital Populations
     Ion    Atom   Orbital             Charge
      H     1      S                    0.639
      H     2      S                    0.586
      H     3      S                    0.624
      H     4      S                    0.671
      H     5      S                    0.641
      H     6      S                    0.637
      H     7      S                    0.631
      H     8      S                    0.594
      H     9      S                    0.667
      H    10      S                    0.608
      H    11      S                    0.627
      H    12      S                    0.611
      H    13      S                    0.636
      H    14      S                    0.603
      H    15      S                    0.593
      H    16      S                    0.621
      H    17      S                    0.660
      H    18      S                    0.647
      H    19      S                    0.636
      H    20      S                    0.629
      H    21      S                    0.615
      H    22      S                    0.638
      H    23      S                    0.612
      H    24      S                    0.644
      C     1      S                    0.903
      C     1      Px                   0.824
      C     1      Py                   0.859
      C     1      Pz                   0.820
      C     2      S                    0.880
      C     2      Px                   0.763
      C     2      Py                   0.837
      C     2      Pz                   0.856
      C     3      S                    0.909
      C     3      Px                   0.806
      C     3      Py                   0.850
      C     3      Pz                   0.881
      C     4      S                    0.894
      C     4      Px                   0.805
      C     4      Py                   0.854
      C     4      Pz                   0.848
      O     1      S                    1.899
      O     1      Px                   1.180
      O     1      Py                   1.814
      O     1      Pz                   1.648
      O     2      S                    1.885
      O     2      Px                   1.487
      O     2      Py                   1.784
      O     2      Pz                   1.354
      O     3      S                    1.809
      O     3      Px                   1.750
      O     3      Py                   1.815
      O     3      Pz                   1.500
      O     4      S                    1.810
      O     4      Px                   1.430
      O     4      Py                   1.751
      O     4      Pz                   1.715
      O     5      S                    1.814
      O     5      Px                   1.674
      O     5      Py                   1.565
      O     5      Pz                   1.595
[...]
     Na    15      Py                  -0.021
     Na    15      Pz                   0.003
     Na    16      S                    2.000
     Na    16      Px                   1.999
     Na    16      Py                   2.000
     Na    16      Pz                   2.000
     Na    16      S                    0.079
     Na    16      Px                   0.006
     Na    16      Py                  -0.040
     Na    16      Pz                   0.062
     Ti     1      S                    1.995
     Ti     1      Px                   1.993
     Ti     1      Py                   1.994
     Ti     1      Pz                   1.994
     Ti     1      S                    0.244
     Ti     1      Dzz                  0.439
     Ti     1      Dzy                  0.431
     Ti     1      Dzx                  0.455
     Ti     1      Dxx-yy               0.439
     Ti     1      Dxy                  0.452
     Ti     1      Px                   0.180
     Ti     1      Py                   0.132
     Ti     1      Pz                   0.133
     Ti     2      S                    1.995
     Ti     2      Px                   1.994
     Ti     2      Py                   1.993
     Ti     2      Pz                   1.994
     Ti     2      S                    0.257
     Ti     2      Dzz                  0.424
     Ti     2      Dzy                  0.434
     Ti     2      Dzx                  0.456
     Ti     2      Dxx-yy               0.445
     Ti     2      Dxy                  0.454
     Ti     2      Px                   0.181
     Ti     2      Py                   0.165
     Ti     2      Pz                   0.170
     Ti     3      S                    1.995
     Ti     3      Px                   1.996
     Ti     3      Py                   1.993
     Ti     3      Pz                   1.991
     Ti     3      S                    0.213
     Ti     3      Dzz                  0.423
     Ti     3      Dzy                  0.458
     Ti     3      Dzx                  0.470
     Ti     3      Dxx-yy               0.478
     Ti     3      Dxy                  0.414
     Ti     3      Px                   0.152
     Ti     3      Py                   0.136
     Ti     3      Pz                   0.118
     Ti     4      S                    1.995
     Ti     4      Px                   1.994
     Ti     4      Py                   1.994
     Ti     4      Pz                   1.993
     Ti     4      S                    0.242
     Ti     4      Dzz                  0.415
     Ti     4      Dzy                  0.449
     Ti     4      Dzx                  0.465
     Ti     4      Dxx-yy               0.469
     Ti     4      Dxy                  0.433
     Ti     4      Px                   0.134
     Ti     4      Py                   0.136
     Ti     4      Pz                   0.163
                           Total:     496.000

     Atomic Populations (Mulliken)
Species          Ion     s      p      d      f     Total  Charge (e)
  H               1     0.64   0.00   0.00   0.00   0.64     0.36
  H               2     0.59   0.00   0.00   0.00   0.59     0.41
  H               3     0.62   0.00   0.00   0.00   0.62     0.38
  H               4     0.67   0.00   0.00   0.00   0.67     0.33
  H               5     0.64   0.00   0.00   0.00   0.64     0.36
  H               6     0.64   0.00   0.00   0.00   0.64     0.36
  H               7     0.63   0.00   0.00   0.00   0.63     0.37
  H               8     0.59   0.00   0.00   0.00   0.59     0.41
  H               9     0.67   0.00   0.00   0.00   0.67     0.33
  H              10     0.61   0.00   0.00   0.00   0.61     0.39
  H              11     0.63   0.00   0.00   0.00   0.63     0.37
  H              12     0.61   0.00   0.00   0.00   0.61     0.39
  H              13     0.64   0.00   0.00   0.00   0.64     0.36
  H              14     0.60   0.00   0.00   0.00   0.60     0.40
  H              15     0.59   0.00   0.00   0.00   0.59     0.41
  H              16     0.62   0.00   0.00   0.00   0.62     0.38
  H              17     0.66   0.00   0.00   0.00   0.66     0.34
  H              18     0.65   0.00   0.00   0.00   0.65     0.35
  H              19     0.64   0.00   0.00   0.00   0.64     0.36
  H              20     0.63   0.00   0.00   0.00   0.63     0.37
  H              21     0.61   0.00   0.00   0.00   0.61     0.39
  H              22     0.64   0.00   0.00   0.00   0.64     0.36
  H              23     0.61   0.00   0.00   0.00   0.61     0.39
  H              24     0.64   0.00   0.00   0.00   0.64     0.36
  C               1     0.90   2.50   0.00   0.00   3.41     0.59
  C               2     0.88   2.46   0.00   0.00   3.34     0.66
  C               3     0.91   2.54   0.00   0.00   3.45     0.55
  C               4     0.89   2.51   0.00   0.00   3.40     0.60
  O               1     1.90   4.64   0.00   0.00   6.54    -0.54
  O               2     1.88   4.62   0.00   0.00   6.51    -0.51
  O               3     1.81   5.06   0.00   0.00   6.87    -0.87
  O               4     1.81   4.90   0.00   0.00   6.71    -0.71
  O               5     1.81   4.83   0.00   0.00   6.65    -0.65
  O               6     1.83   5.08   0.00   0.00   6.90    -0.90
  O               7     1.89   4.61   0.00   0.00   6.51    -0.51
  O               8     1.82   5.06   0.00   0.00   6.88    -0.88
  O               9     1.82   5.07   0.00   0.00   6.89    -0.89
  O              10     1.87   4.91   0.00   0.00   6.78    -0.78
  O              11     1.82   5.08   0.00   0.00   6.90    -0.90
  O              12     1.89   4.61   0.00   0.00   6.50    -0.50
  O              13     1.90   4.63   0.00   0.00   6.53    -0.53
  O              14     1.82   5.07   0.00   0.00   6.89    -0.89
  O              15     1.88   4.87   0.00   0.00   6.75    -0.75
  O              16     1.89   4.64   0.00   0.00   6.54    -0.54
  O              17     1.90   4.61   0.00   0.00   6.51    -0.51
  O              18     1.90   4.60   0.00   0.00   6.50    -0.50
  O              19     1.89   4.64   0.00   0.00   6.53    -0.53
  O              20     1.82   4.87   0.00   0.00   6.69    -0.69
  O              21     1.82   4.82   0.00   0.00   6.64    -0.64
  O              22     1.81   4.83   0.00   0.00   6.64    -0.64
  O              23     1.82   5.05   0.00   0.00   6.87    -0.87
  O              24     1.89   4.64   0.00   0.00   6.53    -0.53
  O              25     1.89   4.61   0.00   0.00   6.50    -0.50
  O              26     1.82   5.06   0.00   0.00   6.88    -0.88
  O              27     1.81   4.87   0.00   0.00   6.68    -0.68
  O              28     1.82   5.06   0.00   0.00   6.88    -0.88
  O              29     1.82   5.04   0.00   0.00   6.86    -0.86
  O              30     1.87   4.87   0.00   0.00   6.74    -0.74
  O              31     1.81   5.07   0.00   0.00   6.88    -0.88
  O              32     1.90   4.63   0.00   0.00   6.52    -0.52
[...]
  Na              6     2.13   6.11   0.00   0.00   8.24     0.76
  Na              7     2.12   5.96   0.00   0.00   8.08     0.92
  Na              8     2.11   5.96   0.00   0.00   8.07     0.93
  Na              9     2.10   6.01   0.00   0.00   8.11     0.89
  Na             10     2.12   6.00   0.00   0.00   8.12     0.88
  Na             11     2.16   6.15   0.00   0.00   8.31     0.69
  Na             12     2.03   5.85   0.00   0.00   7.88     1.12
  Na             13     2.07   5.99   0.00   0.00   8.06     0.94
  Na             14     2.16   6.06   0.00   0.00   8.22     0.78
  Na             15     2.14   5.97   0.00   0.00   8.11     0.89
  Na             16     2.08   6.03   0.00   0.00   8.11     0.89
  Ti              1     2.24   6.43   2.22   0.00  10.88     1.12
  Ti              2     2.25   6.50   2.21   0.00  10.96     1.04
  Ti              3     2.21   6.39   2.24   0.00  10.84     1.16
  Ti              4     2.24   6.41   2.23   0.00  10.88     1.12

                 Bond                   Population      Length (A)
              H 21 -- O 29                   0.64        0.97261
              H 14 -- O 26                   0.63        0.97811
              H 7  -- O 8                    0.63        0.97852
              H 15 -- O 26                   0.62        0.98005
              H 13 -- O 23                   0.65        0.98051
              H 23 -- O 31                   0.62        0.98053
              H 8  -- O 14                   0.59        0.98752
              H 19 -- O 28                   0.62        0.98794
              H 11 -- O 11                   0.61        0.98920
              H 3  -- O 6                    0.62        0.98960
              H 2  -- O 6                    0.58        0.98981
              H 16 -- O 28                   0.61        0.98990
              H 10 -- O 11                   0.58        0.99082
              H 6  -- O 9                    0.62        0.99112
              H 22 -- O 31                   0.63        0.99254
              H 1  -- O 3                    0.61        0.99530
              H 5  -- O 3                    0.62        0.99673
              H 18 -- O 29                   0.61        0.99953
              H 17 -- O 23                   0.62        1.00115
              H 20 -- O 34                   0.60        1.00116
              H 24 -- O 34                   0.61        1.00523
              H 9  -- O 9                    0.62        1.00657
              H 12 -- O 14                   0.56        1.01005
              H 4  -- O 8                    0.59        1.01687
               C 2 -- O 40                   0.91        1.27537
               C 3 -- O 41                   0.95        1.27579
               C 1 -- O 27                   0.93        1.27876
               C 4 -- O 44                   0.90        1.28293
               C 4 -- O 42                   0.90        1.29225
               C 2 -- O 4                    0.88        1.30371
               C 1 -- O 22                   0.87        1.30924
               C 3 -- O 20                   0.85        1.31086
               C 3 -- O 21                   0.85        1.31581
               C 1 -- O 39                   0.82        1.32233
               C 2 -- O 5                    0.81        1.32262
               C 4 -- O 43                   0.80        1.32702
              O 24 -- O 25                   0.19        1.47796
              O 2  -- O 7                    0.20        1.47878
              O 12 -- O 13                   0.19        1.48439
              O 16 -- O 18                   0.18        1.48461
              O 32 -- O 33                   0.19        1.48746
              O 17 -- O 19                   0.19        1.48927
              O 1  -- O 38                   0.20        1.49187
              O 35 -- O 36                   0.19        1.49198
              H 10 -- H 11                  -0.12        1.54725
              H 2  -- H 3                   -0.13        1.54838
              H 8  -- H 12                  -0.12        1.55407
              H 14 -- H 15                  -0.12        1.56416
              H 4  -- H 7                   -0.12        1.56790
              H 22 -- H 23                  -0.11        1.56970
              H 4  -- O 2                    0.15        1.57087
              H 6  -- H 9                   -0.13        1.57187
              H 18 -- H 21                  -0.14        1.57217
              H 16 -- H 19                  -0.12        1.58495
              H 20 -- H 24                  -0.11        1.59948
              H 1  -- H 5                   -0.11        1.60952
              H 13 -- H 17                  -0.11        1.60974
              H 12 -- O 18                   0.12        1.67287
              H 9  -- O 10                   0.11        1.68249
              H 24 -- O 37                   0.11        1.70386
[...]
              H 12 -- H 14                   0.00        2.97607
              H 1  -- Na 2                  -0.10        2.97742
              O 10 -- O 13                  -0.01        2.98262
              H 6  -- Na 1                  -0.09        2.98268
              H 5  -- O 11                  -0.00        2.98448
              H 1  -- Na 3                  -0.01        2.98671
              H 23 -- Na 10                 -0.10        2.98719
              O 32 -- Na 15                 -0.02        2.98751
              H 12 -- O 40                  -0.00        2.98871
              H 2  -- O 40                  -0.01        2.99130
              H 11 -- O 14                  -0.00        2.99152
              O 33 -- O 42                  -0.02        2.99546
              H 13 -- O 19                  -0.01        2.99867
              O 9  -- Na 8                  -0.03        2.99878
              O 1  -- O 43                  -0.01        2.99941

Writing analysis data to Na4TiO5CO3_w_water_thermo.castep_bin

Writing model to Na4TiO5CO3_w_water_thermo.check

 A BibTeX formatted list of references used in this run has been written to
 Na4TiO5CO3_w_water_thermo.bib

Initialisation time =     10.74 s
Calculation time    =  13503.20 s
Finalisation time   =      0.47 s
Total time          =  13514.41 s

Overall parallel efficiency rating: Poor (39%)

Data was distributed by:-
G-vector (40-way); efficiency rating: Poor (40%)