 Run started: Sun, 14 Jan 2024 17:11:54 -0800

 Atomic calculation performed for H: 1s1

 Converged in 41 iterations to an ae energy of -12.488 eV

   | Pseudopotential Report - Date of generation 14-01-2024   |
   | Element: H Ionic charge:  1.00 Level of theory: PBE      |
   | Atomic Solver: Koelling-Harmon                           |
   |               Reference Electronic Structure             |
   |         Orbital         Occupation         Energy        |
   |            1s              1.000           -0.239        |
   |                 Pseudopotential Definition               |
   |        Beta     l      e      Rc     scheme   norm       |
   |          1      0   -0.239   0.803     qc      1         |
   |         loc     1    0.000   0.803     pn      0         |
   | No charge augmentation                                   |
   | No partial core correction                               |
   | "1|0.8|14|16|19|10N(qc=8)"                               |
   |      Author: Chris J. Pickard, Cambridge University      |

 Atomic calculation performed for O: 1s2 2s2 2p4

[...]

   | Pseudopotential Report - Date of generation 14-01-2024   |
   | Element: O Ionic charge:  6.00 Level of theory: PBE      |
   | Atomic Solver: Koelling-Harmon                           |
   |               Reference Electronic Structure             |
   |         Orbital         Occupation         Energy        |
   |            2s              2.000           -0.881        |
   |            2p              4.000           -0.332        |
   |                 Pseudopotential Definition               |
   |        Beta     l      e      Rc     scheme   norm       |
   |          1      0   -0.881   1.196     qc      1         |
   |          2      0    0.250   1.196     qc      1         |
   |          3      1   -0.332   1.196     qc      1         |
   |          4      1    0.250   1.196     qc      1         |
   |         loc     2    0.000   1.196     pn      0         |
   | No charge augmentation                                   |
   | Partial core correction Rc = 0.842                       |
   | "2|1.2|23|26|31|20NN:21NN(qc=9)"                         |
   |      Author: Chris J. Pickard, Cambridge University      |

 Atomic calculation performed for Na: 1s2 2s2 2p6 3s1

[...]

   | Pseudopotential Report - Date of generation 14-01-2024   |
   | Element: Na Ionic charge:  9.00 Level of theory: PBE     |
   | Atomic Solver: Koelling-Harmon                           |
   |               Reference Electronic Structure             |
   |         Orbital         Occupation         Energy        |
   |            2s              2.000           -2.086        |
   |            2p              6.000           -1.054        |
   |            3s              1.000           -0.101        |
   |                 Pseudopotential Definition               |
   |        Beta     l      e      Rc     scheme   norm       |
   |          1      0   -2.086   1.495     qc      1         |
   |          2      0   -0.101   1.495     qc      1         |
   |          3      1   -1.054   1.495     qc      1         |
   |         loc     2    0.000   1.495     pn      0         |
   | No charge augmentation                                   |
   | Partial core correction Rc = 1.053                       |
   | "2|1.5|20|23|26|20N:30N:21N(qc=8)"                       |
   |      Author: Chris J. Pickard, Cambridge University      |

 Atomic calculation performed for Ti: 1s2 2s2 2p6 3s2 3p6 3d2 4s2

 Converged in 79 iterations to an ae energy of -23226.658 eV

   | Pseudopotential Report - Date of generation 14-01-2024   |
   | Element: Ti Ionic charge: 12.00 Level of theory: PBE     |
   | Atomic Solver: Koelling-Harmon                           |
   |               Reference Electronic Structure             |
   |         Orbital         Occupation         Energy        |
   |            3s              2.000           -2.302        |
   |            3p              6.000           -1.428        |
   |            4s              2.000           -0.164        |
   |            3d              2.000           -0.157        |
   |                 Pseudopotential Definition               |
   |        Beta     l      e      Rc     scheme   norm       |
   |          1      0   -2.302   1.793     qc      1         |
   |          2      0   -0.164   1.793     qc      1         |
   |          3      1   -1.428   1.793     qc      1         |
   |          4      2   -0.157   1.793     qc      1         |
   |         loc     3    0.000   1.793     pn      0         |
   | No charge augmentation                                   |
   | Partial core correction Rc = 1.263                       |
   | "3|1.8|15|17|19|30N:40N:31N:32N(qc=7)"                   |
   |      Author: Chris J. Pickard, Cambridge University      |

 Pseudo atomic calculation performed for H 1s1

 Converged in 22 iterations to a total energy of -12.4801 eV

 Pseudo atomic calculation performed for O 2s2 2p4

[...]

 Pseudo atomic calculation performed for Na 2s2 2p6 3s1

[...]

 Converged in 49 iterations to a total energy of -1577.3344 eV
 Calculation parallelised over 40 processes.
 Data is distributed by G-vector(40-way)

 ************************************ Title ************************************
 geo opt

 ***************************** General Parameters ******************************

 output verbosity                               : normal  (1)
 write checkpoint data to                       : Na4TiO8_w_water.check
 type of calculation                            : geometry optimization
 stress calculation                             : off
 density difference calculation                 : off
 electron localisation func (ELF) calculation   : off
 Hirshfeld analysis                             : off
 molecular orbital projected DOS                : off
 deltaSCF calculation                           : off
 unlimited duration calculation
 timing information                             : on
 write extra output files                       : on
 write final potential to formatted file        : off
 write final density to formatted file          : off
 write structure in CELL formatted file         : on
 write BibTeX reference list                    : on
 write OTFG pseudopotential files               : on
 write electrostatic potential file             : on
 write bands file                               : on
 checkpoint writing                             : both castep_bin and check files

 output         length unit                     : A
 output           mass unit                     : amu
 output           time unit                     : ps
 output         charge unit                     : e
 output           spin unit                     : hbar/2
 output         energy unit                     : eV
 output          force unit                     : eV/A
 output       velocity unit                     : A/ps
 output       pressure unit                     : GPa
 output     inv_length unit                     : 1/A
 output      frequency unit                     : cm-1
 output force constant unit                     : eV/A**2
 output         volume unit                     : A**3
 output   IR intensity unit                     : (D/A)**2/amu
 output         dipole unit                     : D
 output         efield unit                     : eV/A/e
 output        entropy unit                     : J/mol/K
 output    efield chi2 unit                     : pm/V

 wavefunctions paging                           : none
 random number generator seed                   : randomised (171154389)
 data distribution                              : optimal for this architecture
 optimization strategy                          : maximize speed(+++)

 *********************** Exchange-Correlation Parameters ***********************

 using functional                               : Perdew Burke Ernzerhof
 relativistic treatment                         : Koelling-Harmon
 DFT+D: Semi-empirical dispersion correction    : off

 ************************* Pseudopotential Parameters **************************

 pseudopotential representation                 : reciprocal space
 <beta|phi> representation                      : reciprocal space
 spin-orbit coupling                            : off

 **************************** Basis Set Parameters *****************************

 plane wave basis set cut-off                   :   850.0000   eV
 size of standard grid                          :     1.7500
 size of   fine   gmax                          :    26.1388   1/A
 finite basis set correction                    : automatic
 number of sample energies                      :          3
           sample  spacing                      :     5.0000   eV

 **************************** Electronic Parameters ****************************

 number of  electrons                           :  480.0
 net charge of system                           :  0.000
 treating system as non-spin-polarized
 number of bands                                :        240
 electron temperature                           :     0.0000   K

 ********************* Electronic Minimization Parameters **********************

 Method: Treating system as non-metallic,
         and number of  SD  steps               :          1
         and number of  CG  steps               :          4

 total energy / atom convergence tol.           : 0.1000E-09   eV
 max force / atom convergence tol.              : ignored
 convergence tolerance window                   :          3   cycles
 max. number of SCF cycles                      :        250
 periodic dipole correction                     : NONE

 *********************** Population Analysis Parameters ************************

 Population analysis with cutoff                :  3.000       A
 Population analysis output                     : summary and pdos components

 ********************** Geometry Optimization Parameters ***********************

 optimization method                            : BFGS
 variable cell method                           : fixed basis quality
 max. number of steps                           :        300
 estimated bulk modulus                         :  500.0       GPa
 estimated <frequency>                          :  1668.       cm-1
 geom line minimiser                            : on
 with line minimiser tolerance                  :     0.4000
 total energy convergence tolerance             : 0.2000E-04   eV/atom
        max ionic |force| tolerance             : 0.1000E-02   eV/A
 max ionic |displacement| tolerance             : 0.1000E-02   A
   max |stress component| tolerance             : 0.1000       GPa
 convergence tolerance window                   :          2   steps
 backup results every                           :          5   steps
 write geom trajectory file                     : on

                                      Unit Cell
        Real Lattice(A)                      Reciprocal Lattice(1/A)
    12.1470000     0.0000000     0.0000000        0.517262312   0.000000000   0.166214189
[...]
 *  x      0.000161      0.000000      0.000242  *
 *  y      0.000000     -0.000272      0.000000  *
 *  z      0.000242      0.000000     -0.000052  *
 *  Pressure:    0.0001                          *

 Pseudo atomic calculation performed for H 1s1

[...]

 Pseudo atomic calculation performed for O 2s2 2p4

[...]

 Converged in 27 iterations to a total energy of -1230.2427 eV

 Pseudo atomic calculation performed for Ti 3s2 3p6 3d2 4s2

 Converged in 49 iterations to a total energy of -1577.3344 eV
Charge spilling parameter for spin component 1 = 0.28%

            Orbital Populations
     Ion    Atom   Orbital             Charge
      H     1      S                    0.624
      H     2      S                    0.588
      H     3      S                    0.628
      H     4      S                    0.688
      H     5      S                    0.640
      H     6      S                    0.679
      H     7      S                    0.679
      H     8      S                    0.640
      H     9      S                    0.688
      H    10      S                    0.628
      H    11      S                    0.588
      H    12      S                    0.624
      H    13      S                    0.624
      H    14      S                    0.588
      H    15      S                    0.628
      H    16      S                    0.688
      H    17      S                    0.640
      H    18      S                    0.679
      H    19      S                    0.679
      H    20      S                    0.640
      H    21      S                    0.688
      H    22      S                    0.628
      H    23      S                    0.588
      H    24      S                    0.624
      O     1      S                    1.893
      O     1      Px                   1.457
      O     1      Py                   1.551
      O     1      Pz                   1.601
      O     2      S                    1.894
      O     2      Px                   1.364
      O     2      Py                   1.625
      O     2      Pz                   1.657
      O     3      S                    1.896
      O     3      Px                   1.176
      O     3      Py                   1.679
      O     3      Pz                   1.782
      O     4      S                    1.892
      O     4      Px                   1.261
      O     4      Py                   1.625
      O     4      Pz                   1.759
      O     5      S                    1.890
      O     5      Px                   1.392
      O     5      Py                   1.794
      O     5      Pz                   1.448
      O     6      S                    1.808
      O     6      Px                   1.755
      O     6      Py                   1.827
      O     6      Pz                   1.485
      O     7      S                    1.888
      O     7      Px                   1.068
      O     7      Py                   1.780
      O     7      Pz                   1.796
      O     8      S                    1.895
      O     8      Px                   1.079
      O     8      Py                   1.738
      O     8      Pz                   1.783
      O     9      S                    1.820
      O     9      Px                   1.737
      O     9      Py                   1.523
      O     9      Pz                   1.805
[...]
     Na    15      Py                   0.023
     Na    15      Pz                  -0.044
     Na    16      S                    2.000
     Na    16      Px                   2.000
     Na    16      Py                   2.000
     Na    16      Pz                   2.000
     Na    16      S                    0.074
     Na    16      Px                   0.048
     Na    16      Py                   0.034
     Na    16      Pz                  -0.014
     Ti     1      S                    1.997
     Ti     1      Px                   1.995
     Ti     1      Py                   1.994
     Ti     1      Pz                   1.995
     Ti     1      S                    0.229
     Ti     1      Dzz                  0.357
     Ti     1      Dzy                  0.452
     Ti     1      Dzx                  0.446
     Ti     1      Dxx-yy               0.446
     Ti     1      Dxy                  0.462
     Ti     1      Px                   0.171
     Ti     1      Py                   0.150
     Ti     1      Pz                   0.170
     Ti     2      S                    1.997
     Ti     2      Px                   1.995
     Ti     2      Py                   1.994
     Ti     2      Pz                   1.995
     Ti     2      S                    0.229
     Ti     2      Dzz                  0.357
     Ti     2      Dzy                  0.452
     Ti     2      Dzx                  0.446
     Ti     2      Dxx-yy               0.446
     Ti     2      Dxy                  0.462
     Ti     2      Px                   0.171
     Ti     2      Py                   0.150
     Ti     2      Pz                   0.170
     Ti     3      S                    1.997
     Ti     3      Px                   1.995
     Ti     3      Py                   1.994
     Ti     3      Pz                   1.995
     Ti     3      S                    0.229
     Ti     3      Dzz                  0.357
     Ti     3      Dzy                  0.452
     Ti     3      Dzx                  0.446
     Ti     3      Dxx-yy               0.446
     Ti     3      Dxy                  0.462
     Ti     3      Px                   0.171
     Ti     3      Py                   0.150
     Ti     3      Pz                   0.170
     Ti     4      S                    1.997
     Ti     4      Px                   1.995
     Ti     4      Py                   1.994
     Ti     4      Pz                   1.995
     Ti     4      S                    0.229
     Ti     4      Dzz                  0.357
     Ti     4      Dzy                  0.452
     Ti     4      Dzx                  0.446
     Ti     4      Dxx-yy               0.446
     Ti     4      Dxy                  0.462
     Ti     4      Px                   0.171
     Ti     4      Py                   0.150
     Ti     4      Pz                   0.170
                           Total:     480.000

     Atomic Populations (Mulliken)
Species          Ion     s      p      d      f     Total  Charge (e)
  H               1     0.62   0.00   0.00   0.00   0.62     0.38
  H               2     0.59   0.00   0.00   0.00   0.59     0.41
  H               3     0.63   0.00   0.00   0.00   0.63     0.37
  H               4     0.69   0.00   0.00   0.00   0.69     0.31
  H               5     0.64   0.00   0.00   0.00   0.64     0.36
  H               6     0.68   0.00   0.00   0.00   0.68     0.32
  H               7     0.68   0.00   0.00   0.00   0.68     0.32
  H               8     0.64   0.00   0.00   0.00   0.64     0.36
  H               9     0.69   0.00   0.00   0.00   0.69     0.31
  H              10     0.63   0.00   0.00   0.00   0.63     0.37
  H              11     0.59   0.00   0.00   0.00   0.59     0.41
  H              12     0.62   0.00   0.00   0.00   0.62     0.38
  H              13     0.62   0.00   0.00   0.00   0.62     0.38
  H              14     0.59   0.00   0.00   0.00   0.59     0.41
  H              15     0.63   0.00   0.00   0.00   0.63     0.37
  H              16     0.69   0.00   0.00   0.00   0.69     0.31
  H              17     0.64   0.00   0.00   0.00   0.64     0.36
  H              18     0.68   0.00   0.00   0.00   0.68     0.32
  H              19     0.68   0.00   0.00   0.00   0.68     0.32
  H              20     0.64   0.00   0.00   0.00   0.64     0.36
  H              21     0.69   0.00   0.00   0.00   0.69     0.31
  H              22     0.63   0.00   0.00   0.00   0.63     0.37
  H              23     0.59   0.00   0.00   0.00   0.59     0.41
  H              24     0.62   0.00   0.00   0.00   0.62     0.38
  O               1     1.89   4.61   0.00   0.00   6.50    -0.50
  O               2     1.89   4.65   0.00   0.00   6.54    -0.54
  O               3     1.90   4.64   0.00   0.00   6.53    -0.53
  O               4     1.89   4.65   0.00   0.00   6.54    -0.54
  O               5     1.89   4.63   0.00   0.00   6.52    -0.52
  O               6     1.81   5.07   0.00   0.00   6.87    -0.87
  O               7     1.89   4.64   0.00   0.00   6.53    -0.53
  O               8     1.90   4.60   0.00   0.00   6.50    -0.50
  O               9     1.82   5.06   0.00   0.00   6.88    -0.88
  O              10     1.89   4.62   0.00   0.00   6.52    -0.52
  O              11     1.80   5.04   0.00   0.00   6.84    -0.84
  O              12     1.80   5.04   0.00   0.00   6.84    -0.84
  O              13     1.89   4.62   0.00   0.00   6.52    -0.52
  O              14     1.82   5.06   0.00   0.00   6.88    -0.88
  O              15     1.90   4.60   0.00   0.00   6.50    -0.50
  O              16     1.89   4.64   0.00   0.00   6.53    -0.53
  O              17     1.81   5.07   0.00   0.00   6.87    -0.87
  O              18     1.89   4.63   0.00   0.00   6.52    -0.52
  O              19     1.89   4.65   0.00   0.00   6.54    -0.54
  O              20     1.90   4.64   0.00   0.00   6.53    -0.53
  O              21     1.89   4.65   0.00   0.00   6.54    -0.54
  O              22     1.89   4.61   0.00   0.00   6.50    -0.50
  O              23     1.89   4.61   0.00   0.00   6.50    -0.50
  O              24     1.89   4.65   0.00   0.00   6.54    -0.54
  O              25     1.90   4.64   0.00   0.00   6.53    -0.53
  O              26     1.89   4.65   0.00   0.00   6.54    -0.54
  O              27     1.89   4.63   0.00   0.00   6.52    -0.52
  O              28     1.81   5.07   0.00   0.00   6.87    -0.87
  O              29     1.89   4.64   0.00   0.00   6.53    -0.53
  O              30     1.90   4.60   0.00   0.00   6.50    -0.50
  O              31     1.82   5.06   0.00   0.00   6.88    -0.88
  O              32     1.89   4.62   0.00   0.00   6.52    -0.52
  O              33     1.80   5.04   0.00   0.00   6.84    -0.84
  O              34     1.80   5.04   0.00   0.00   6.84    -0.84
  O              35     1.89   4.62   0.00   0.00   6.52    -0.52
  O              36     1.82   5.06   0.00   0.00   6.88    -0.88
[...]
  Na              6     2.15   6.21   0.00   0.00   8.36     0.64
  Na              7     2.14   5.93   0.00   0.00   8.08     0.92
  Na              8     2.07   6.07   0.00   0.00   8.14     0.86
  Na              9     2.07   6.07   0.00   0.00   8.14     0.86
  Na             10     2.14   5.93   0.00   0.00   8.08     0.92
  Na             11     2.15   6.21   0.00   0.00   8.36     0.64
  Na             12     2.05   5.88   0.00   0.00   7.93     1.07
  Na             13     2.05   5.88   0.00   0.00   7.93     1.07
  Na             14     2.15   6.21   0.00   0.00   8.36     0.64
  Na             15     2.14   5.93   0.00   0.00   8.08     0.92
  Na             16     2.07   6.07   0.00   0.00   8.14     0.86
  Ti              1     2.23   6.47   2.16   0.00  10.87     1.13
  Ti              2     2.23   6.47   2.16   0.00  10.87     1.13
  Ti              3     2.23   6.47   2.16   0.00  10.87     1.13
  Ti              4     2.23   6.47   2.16   0.00  10.87     1.13

                 Bond                   Population      Length (A)
              H 11 -- O 14                   0.64        0.96949
              H 23 -- O 36                   0.64        0.96949
              H 2  -- O 9                    0.64        0.96949
              H 14 -- O 31                   0.64        0.96949
              H 19 -- O 33                   0.68        0.98822
              H 7  -- O 11                   0.68        0.98822
              H 18 -- O 34                   0.68        0.98822
              H 6  -- O 12                   0.68        0.98822
              H 3  -- O 9                    0.61        0.99526
              H 10 -- O 14                   0.61        0.99526
              H 22 -- O 36                   0.61        0.99526
              H 15 -- O 31                   0.61        0.99526
              H 17 -- O 28                   0.60        0.99861
              H 20 -- O 39                   0.60        0.99861
              H 8  -- O 17                   0.60        0.99861
              H 5  -- O 6                    0.60        0.99861
              H 1  -- O 6                    0.60        0.99936
              H 12 -- O 17                   0.60        0.99936
              H 13 -- O 28                   0.60        0.99936
              H 24 -- O 39                   0.60        0.99936
              H 16 -- O 33                   0.65        1.00009
              H 9  -- O 12                   0.65        1.00009
              H 4  -- O 11                   0.65        1.00009
              H 21 -- O 34                   0.65        1.00009
              O 15 -- O 16                   0.20        1.48315
              O 37 -- O 38                   0.20        1.48315
              O 29 -- O 30                   0.20        1.48315
              O 7  -- O 8                    0.20        1.48315
              O 27 -- O 32                   0.19        1.48753
              O 35 -- O 40                   0.19        1.48753
              O 5  -- O 10                   0.19        1.48753
              O 13 -- O 18                   0.19        1.48753
              O 22 -- O 24                   0.19        1.48781
              O 21 -- O 23                   0.19        1.48781
              O 2  -- O 44                   0.19        1.48781
              O 1  -- O 43                   0.19        1.48781
              O 3  -- O 4                    0.18        1.49401
              O 41 -- O 42                   0.18        1.49401
              O 19 -- O 20                   0.18        1.49401
              O 25 -- O 26                   0.18        1.49401
              H 10 -- H 11                  -0.12        1.57228
              H 22 -- H 23                  -0.12        1.57228
              H 2  -- H 3                   -0.12        1.57228
              H 14 -- H 15                  -0.12        1.57228
              H 16 -- H 19                  -0.12        1.58344
              H 6  -- H 9                   -0.12        1.58344
              H 4  -- H 7                   -0.12        1.58344
              H 18 -- H 21                  -0.12        1.58344
              H 8  -- H 12                  -0.11        1.60674
              H 1  -- H 5                   -0.11        1.60674
              H 20 -- H 24                  -0.11        1.60674
              H 13 -- H 17                  -0.11        1.60674
              H 22 -- O 39                   0.09        1.71414
              H 3  -- O 6                    0.09        1.71414
              H 15 -- O 28                   0.09        1.71414
              H 10 -- O 17                   0.09        1.71414
              H 21 -- O 40                   0.11        1.71690
              H 4  -- O 5                    0.11        1.71690
              H 9  -- O 18                   0.11        1.71690
              H 16 -- O 27                   0.11        1.71690
[...]
              O 2  -- O 4                   -0.02        2.99322
              O 24 -- O 26                  -0.02        2.99322
              O 41 -- O 43                  -0.02        2.99322
              O 12 -- Na 9                  -0.05        2.99564
              O 33 -- Na 8                  -0.05        2.99564
              O 34 -- Na 1                  -0.05        2.99564
              O 11 -- Na 16                 -0.05        2.99564
              O 38 -- O 40                  -0.02        2.99816
              O 16 -- O 18                  -0.02        2.99816
              O 27 -- O 29                  -0.02        2.99816
              O 5  -- O 7                   -0.02        2.99816
              H 12 -- Na 5                  -0.10        2.99909
              H 24 -- Na 13                 -0.10        2.99909
              H 13 -- Na 12                 -0.10        2.99909
              H 1  -- Na 4                  -0.10        2.99909

Writing analysis data to Na4TiO8_w_water.castep_bin

Writing model to Na4TiO8_w_water.check

 A BibTeX formatted list of references used in this run has been written to
 Na4TiO8_w_water.bib

Initialisation time =     12.10 s
Calculation time    =  45691.49 s
Finalisation time   =      0.48 s
Total time          =  45704.07 s

Overall parallel efficiency rating: Terrible (5%)

Data was distributed by:-
G-vector (40-way); efficiency rating: Terrible (5%)